70
1 0 36
2 0 18
2 1 34
3 0 29
3 1 36
3 2 23
4 0 28
4 1 43
4 2 48
4 3 22
5 0 27
5 1 29
5 2 50
5 3 7
5 4 21
6 0 44
6 1 23
6 2 29
6 3 13
6 4 22
6 5 10
7 0 26
7 1 31
7 2 5
7 3 4
7 4 38
7 5 50
7 6 11
8 0 26
8 1 36
8 2 28
8 3 2
8 4 24
8 5 48
8 6 2
8 7 24
9 0 26
9 1 49
9 2 39
9 3 16
9 4 6
9 5 29
9 6 42
9 7 18
9 8 37
10 0 19
10 1 44
10 2 11
10 3 26
10 4 19
10 5 14
10 6 50
10 7 15
10 8 34
10 9 28
11 0 31
11 1 17
11 2 33
11 3 13
11 4 42
11 5 17
11 6 23
11 7 26
11 8 7
11 9 8
11 10 10
12 0 22
12 1 7
12 2 15
12 3 24
12 4 30
12 5 43
12 6 40
12 7 15
12 8 23
12 9 24
12 10 13
12 11 5
13 0 33
13 1 3
13 2 11
13 3 34
13 4 7
13 5 24
13 6 46
13 7 7
13 8 42
13 9 31
13 10 17
13 11 20
13 12 14
14 0 20
14 1 42
14 2 34
14 3 22
14 4 21
14 5 7
14 6 36
14 7 20
14 8 1
14 9 6
14 10 15
14 11 6
14 12 18
14 13 37
15 0 45
15 1 50
15 2 23
15 3 20
15 4 22
15 5 50
15 6 28
15 7 44
15 8 45
15 9 48
15 10 12
15 11 21
15 12 42
15 13 42
15 14 47
16 0 8
16 1 14
16 2 15
16 3 6
16 4 41
16 5 24
16 6 1
16 7 49
16 8 44
16 9 31
16 10 4
16 11 24
16 12 18
16 13 17
16 14 48
16 15 10
17 0 33
17 1 24
17 2 35
17 3 15
17 4 30
17 5 42
17 6 6
17 7 24
17 8 20
17 9 33
17 10 20
17 11 32
17 12 49
17 13 48
17 14 16
17 15 4
17 16 13
18 0 2
18 1 1
18 2 41
18 3 4
18 4 1
18 5 45
18 6 41
18 7 47
18 8 43
18 9 6
18 10 2
18 11 35
18 12 19
18 13 3
18 14 33
18 15 48
18 16 19
18 17 13
19 0 39
19 1 42
19 2 27
19 3 50
19 4 27
19 5 8
19 6 6
19 7 27
19 8 27
19 9 24
19 10 11
19 11 20
19 12 35
19 13 14
19 14 21
19 15 30
19 16 19
19 17 23
19 18 48
20 0 25
20 1 3
20 2 40
20 3 32
20 4 30
20 5 46
20 6 1
20 7 25
20 8 32
20 9 16
20 10 39
20 11 26
20 12 38
20 13 47
20 14 24
20 15 47
20 16 23
20 17 47
20 18 49
20 19 19
21 0 45
21 1 28
21 2 24
21 3 22
21 4 20
21 5 47
21 6 1
21 7 22
21 8 26
21 9 5
21 10 30
21 11 39
21 12 47
21 13 26
21 14 39
21 15 42
21 16 44
21 17 16
21 18 13
21 19 27
21 20 6
22 0 24
22 1 38
22 2 43
22 3 29
22 4 22
22 5 9
22 6 49
22 7 47
22 8 33
22 9 47
22 10 48
22 11 11
22 12 31
22 13 4
22 14 40
22 15 40
22 16 43
22 17 15
22 18 42
22 19 26
22 20 6
22 21 46
23 0 13
23 1 47
23 2 47
23 3 48
23 4 21
23 5 27
23 6 46
23 7 19
23 8 20
23 9 50
23 10 29
23 11 6
23 12 39
23 13 13
23 14 50
23 15 43
23 16 32
23 17 21
23 18 45
23 19 17
23 20 5
23 21 20
23 22 13
24 0 41
24 1 18
24 2 4
24 3 42
24 4 43
24 5 25
24 6 25
24 7 42
24 8 27
24 9 45
24 10 38
24 11 30
24 12 6
24 13 41
24 14 17
24 15 11
24 16 11
24 17 30
24 18 37
24 19 29
24 20 20
24 21 26
24 22 27
24 23 40
25 0 27
25 1 11
25 2 18
25 3 25
25 4 31
25 5 15
25 6 22
25 7 3
25 8 30
25 9 17
25 10 35
25 11 1
25 12 15
25 13 41
25 14 19
25 15 15
25 16 7
25 17 10
25 18 2
25 19 25
25 20 28
25 21 19
25 22 50
25 23 1
25 24 24
26 0 27
26 1 36
26 2 17
26 3 22
26 4 27
26 5 3
26 6 44
26 7 16
26 8 43
26 9 31
26 10 16
26 11 12
26 12 29
26 13 18
26 14 4
26 15 28
26 16 35
26 17 46
26 18 32
26 19 48
26 20 9
26 21 5
26 22 31
26 23 46
26 24 11
26 25 40
27 0 49
27 1 6
27 2 36
27 3 12
27 4 38
27 5 25
27 6 48
27 7 8
27 8 6
27 9 18
27 10 46
27 11 22
27 12 26
27 13 10
27 14 44
27 15 16
27 16 35
27 17 29
27 18 1
27 19 2
27 20 14
27 21 2
27 22 19
27 23 42
27 24 26
27 25 44
27 26 14
28 0 21
28 1 19
28 2 23
28 3 46
28 4 13
28 5 47
28 6 48
28 7 9
28 8 30
28 9 48
28 10 15
28 11 21
28 12 46
28 13 43
28 14 14
28 15 43
28 16 6
28 17 35
28 18 2
28 19 9
28 20 37
28 21 38
28 22 42
28 23 3
28 24 7
28 25 42
28 26 22
28 27 40
29 0 7
29 1 19
29 2 31
29 3 28
29 4 45
29 5 2
29 6 30
29 7 27
29 8 39
29 9 19
29 10 28
29 11 10
29 12 19
29 13 30
29 14 22
29 15 28
29 16 27
29 17 35
29 18 22
29 19 47
29 20 13
29 21 24
29 22 23
29 23 35
29 24 16
29 25 48
29 26 1
29 27 48
29 28 3
30 0 32
30 1 9
30 2 13
30 3 7
30 4 17
30 5 10
30 6 35
30 7 40
30 8 18
30 9 23
30 10 2
30 11 38
30 12 37
30 13 31
30 14 35
30 15 27
30 16 28
30 17 42
30 18 31
30 19 1
30 20 17
30 21 47
30 22 33
30 23 32
30 24 18
30 25 38
30 26 40
30 27 23
30 28 17
30 29 35
31 0 11
31 1 41
31 2 33
31 3 24
31 4 14
31 5 28
31 6 13
31 7 4
31 8 42
31 9 46
31 10 37
31 11 11
31 12 26
31 13 30
31 14 16
31 15 45
31 16 28
31 17 31
31 18 50
31 19 42
31 20 41
31 21 43
31 22 20
31 23 35
31 24 39
31 25 31
31 26 40
31 27 38
31 28 33
31 29 21
31 30 3
32 0 3
32 1 47
32 2 46
32 3 18
32 4 23
32 5 4
32 6 28
32 7 9
32 8 46
32 9 10
32 10 30
32 11 35
32 12 6
32 13 28
32 14 25
32 15 36
32 16 10
32 17 50
32 18 29
32 19 39
32 20 50
32 21 37
32 22 41
32 23 46
32 24 22
32 25 38
32 26 48
32 27 25
32 28 40
32 29 32
32 30 19
32 31 36
33 0 38
33 1 13
33 2 16
33 3 4
33 4 43
33 5 50
33 6 29
33 7 36
33 8 31
33 9 14
33 10 28
33 11 15
33 12 15
33 13 37
33 14 23
33 15 10
33 16 10
33 17 46
33 18 42
33 19 43
33 20 50
33 21 37
33 22 49
33 23 35
33 24 24
33 25 3
33 26 42
33 27 44
33 28 29
33 29 41
33 30 6
33 31 42
33 32 38
34 0 37
34 1 15
34 2 25
34 3 3
34 4 39
34 5 11
34 6 23
34 7 9
34 8 23
34 9 43
34 10 21
34 11 37
34 12 46
34 13 6
34 14 3
34 15 23
34 16 20
34 17 1
34 18 35
34 19 32
34 20 20
34 21 25
34 22 37
34 23 34
34 24 38
34 25 32
34 26 25
34 27 4
34 28 13
34 29 7
34 30 10
34 31 18
34 32 41
34 33 18
35 0 50
35 1 48
35 2 7
35 3 13
35 4 19
35 5 29
35 6 13
35 7 35
35 8 17
35 9 9
35 10 36
35 11 37
35 12 8
35 13 10
35 14 3
35 15 49
35 16 36
35 17 32
35 18 43
35 19 32
35 20 28
35 21 18
35 22 35
35 23 46
35 24 20
35 25 24
35 26 23
35 27 21
35 28 12
35 29 1
35 30 7
35 31 10
35 32 3
35 33 43
35 34 2
36 0 19
36 1 12
36 2 35
36 3 40
36 4 25
36 5 1
36 6 48
36 7 46
36 8 1
36 9 10
36 10 16
36 11 22
36 12 34
36 13 29
36 14 31
36 15 15
36 16 30
36 17 40
36 18 10
36 19 7
36 20 17
36 21 27
36 22 4
36 23 42
36 24 19
36 25 27
36 26 14
36 27 2
36 28 24
36 29 35
36 30 20
36 31 9
36 32 12
36 33 1
36 34 13
36 35 12
37 0 31
37 1 26
37 2 1
37 3 42
37 4 5
37 5 10
37 6 13
37 7 25
37 8 4
37 9 37
37 10 47
37 11 13
37 12 22
37 13 18
37 14 10
37 15 49
37 16 27
37 17 11
37 18 7
37 19 1
37 20 40
37 21 10
37 22 33
37 23 44
37 24 45
37 25 44
37 26 22
37 27 17
37 28 16
37 29 15
37 30 35
37 31 6
37 32 21
37 33 23
37 34 36
37 35 41
37 36 18
38 0 45
38 1 44
38 2 45
38 3 50
38 4 37
38 5 36
38 6 6
38 7 1
38 8 4
38 9 22
38 10 13
38 11 50
38 12 25
38 13 44
38 14 14
38 15 34
38 16 9
38 17 31
38 18 25
38 19 49
38 20 44
38 21 49
38 22 43
38 23 41
38 24 33
38 25 2
38 26 41
38 27 1
38 28 21
38 29 41
38 30 23
38 31 21
38 32 7
38 33 20
38 34 25
38 35 7
38 36 35
38 37 28
39 0 25
39 1 41
39 2 46
39 3 7
39 4 26
39 5 2
39 6 28
39 7 15
39 8 2
39 9 11
39 10 40
39 11 19
39 12 32
39 13 50
39 14 35
39 15 4
39 16 47
39 17 27
39 18 6
39 19 44
39 20 46
39 21 19
39 22 14
39 23 16
39 24 13
39 25 1
39 26 13
39 27 17
39 28 38
39 29 45
39 30 34
39 31 34
39 32 31
39 33 50
39 34 26
39 35 25
39 36 13
39 37 32
39 38 4
40 0 7
40 1 6
40 2 33
40 3 3
40 4 46
40 5 15
40 6 49
40 7 27
40 8 36
40 9 10
40 10 44
40 11 24
40 12 14
40 13 32
40 14 3
40 15 35
40 16 21
40 17 40
40 18 42
40 19 30
40 20 15
40 21 2
40 22 15
40 23 3
40 24 30
40 25 37
40 26 6
40 27 26
40 28 31
40 29 15
40 30 21
40 31 39
40 32 38
40 33 14
40 34 9
40 35 6
40 36 40
40 37 7
40 38 21
40 39 6
41 0 40
41 1 45
41 2 30
41 3 42
41 4 28
41 5 13
41 6 8
41 7 25
41 8 20
41 9 16
41 10 30
41 11 36
41 12 2
41 13 10
41 14 46
41 15 50
41 16 11
41 17 28
41 18 9
41 19 50
41 20 17
41 21 10
41 22 26
41 23 34
41 24 5
41 25 28
41 26 45
41 27 34
41 28 6
41 29 47
41 30 20
41 31 6
41 32 44
41 33 26
41 34 45
41 35 43
41 36 18
41 37 24
41 38 13
41 39 1
41 40 25
42 0 50
42 1 36
42 2 1
42 3 13
42 4 41
42 5 36
42 6 42
42 7 31
42 8 32
42 9 24
42 10 43
42 11 14
42 12 32
42 13 22
42 14 29
42 15 24
42 16 33
42 17 32
42 18 18
42 19 21
42 20 50
42 21 17
42 22 31
42 23 14
42 24 3
42 25 8
42 26 16
42 27 23
42 28 44
42 29 18
42 30 30
42 31 45
42 32 23
42 33 23
42 34 49
42 35 26
42 36 34
42 37 4
42 38 23
42 39 1
42 40 39
42 41 28
43 0 14
43 1 31
43 2 46
43 3 2
43 4 23
43 5 30
43 6 22
43 7 48
43 8 7
43 9 28
43 10 24
43 11 49
43 12 22
43 13 43
43 14 23
43 15 50
43 16 19
43 17 35
43 18 11
43 19 33
43 20 49
43 21 27
43 22 6
43 23 34
43 24 34
43 25 11
43 26 11
43 27 29
43 28 37
43 29 32
43 30 21
43 31 50
43 32 4
43 33 4
43 34 12
43 35 21
43 36 44
43 37 20
43 38 11
43 39 1
43 40 38
43 41 32
43 42 44
44 0 13
44 1 30
44 2 49
44 3 2
44 4 2
44 5 6
44 6 45
44 7 1
44 8 29
44 9 31
44 10 6
44 11 29
44 12 37
44 13 5
44 14 21
44 15 43
44 16 50
44 17 46
44 18 34
44 19 6
44 20 24
44 21 8
44 22 40
44 23 9
44 24 40
44 25 18
44 26 1
44 27 14
44 28 22
44 29 6
44 30 46
44 31 20
44 32 13
44 33 35
44 34 17
44 35 44
44 36 46
44 37 40
44 38 37
44 39 41
44 40 32
44 41 12
44 42 46
44 43 5
45 0 26
45 1 32
45 2 39
45 3 21
45 4 8
45 5 3
45 6 7
45 7 42
45 8 29
45 9 41
45 10 12
45 11 4
45 12 22
45 13 43
45 14 31
45 15 10
45 16 13
45 17 33
45 18 36
45 19 19
45 20 50
45 21 15
45 22 49
45 23 12
45 24 7
45 25 23
45 26 35
45 27 31
45 28 17
45 29 5
45 30 35
45 31 48
45 32 12
45 33 22
45 34 26
45 35 30
45 36 43
45 37 19
45 38 39
45 39 23
45 40 34
45 41 14
45 42 6
45 43 26
45 44 28
46 0 4
46 1 19
46 2 14
46 3 43
46 4 41
46 5 17
46 6 34
46 7 27
46 8 21
46 9 7
46 10 48
46 11 49
46 12 5
46 13 47
46 14 17
46 15 3
46 16 23
46 17 37
46 18 43
46 19 18
46 20 40
46 21 11
46 22 14
46 23 38
46 24 37
46 25 2
46 26 8
46 27 48
46 28 3
46 29 13
46 30 28
46 31 12
46 32 47
46 33 15
46 34 49
46 35 40
46 36 20
46 37 45
46 38 4
46 39 33
46 40 43
46 41 7
46 42 43
46 43 23
46 44 14
46 45 11
47 0 8
47 1 2
47 2 2
47 3 30
47 4 17
47 5 27
47 6 33
47 7 40
47 8 50
47 9 17
47 10 49
47 11 45
47 12 37
47 13 12
47 14 16
47 15 29
47 16 18
47 17 14
47 18 1
47 19 12
47 20 14
47 21 39
47 22 1
47 23 16
47 24 37
47 25 48
47 26 30
47 27 16
47 28 8
47 29 8
47 30 20
47 31 38
47 32 47
47 33 9
47 34 15
47 35 3
47 36 9
47 37 26
47 38 45
47 39 20
47 40 19
47 41 38
47 42 18
47 43 39
47 44 9
47 45 42
47 46 17
48 0 45
48 1 20
48 2 10
48 3 42
48 4 34
48 5 6
48 6 27
48 7 23
48 8 11
48 9 26
48 10 32
48 11 13
48 12 49
48 13 44
48 14 9
48 15 9
48 16 14
48 17 35
48 18 3
48 19 49
48 20 5
48 21 40
48 22 49
48 23 40
48 24 15
48 25 21
48 26 37
48 27 49
48 28 25
48 29 46
48 30 29
48 31 43
48 32 48
48 33 50
48 34 3
48 35 20
48 36 37
48 37 39
48 38 37
48 39 6
48 40 39
48 41 25
48 42 23
48 43 26
48 44 9
48 45 13
48 46 2
48 47 3
49 0 36
49 1 45
49 2 36
49 3 21
49 4 35
49 5 37
49 6 27
49 7 22
49 8 43
49 9 2
49 10 27
49 11 7
49 12 8
49 13 14
49 14 34
49 15 27
49 16 9
49 17 33
49 18 22
49 19 25
49 20 3
49 21 15
49 22 45
49 23 18
49 24 34
49 25 12
49 26 32
49 27 21
49 28 38
49 29 5
49 30 27
49 31 26
49 32 14
49 33 47
49 34 34
49 35 49
49 36 41
49 37 45
49 38 30
49 39 7
49 40 15
49 41 19
49 42 42
49 43 38
49 44 2
49 45 49
49 46 28
49 47 19
49 48 39
50 0 27
50 1 12
50 2 8
50 3 33
50 4 47
50 5 13
50 6 50
50 7 50
50 8 17
50 9 38
50 10 45
50 11 9
50 12 13
50 13 39
50 14 30
50 15 15
50 16 28
50 17 39
50 18 24
50 19 15
50 20 8
50 21 12
50 22 39
50 23 39
50 24 15
50 25 30
50 26 44
50 27 25
50 28 18
50 29 43
50 30 2
50 31 21
50 32 38
50 33 35
50 34 5
50 35 44
50 36 22
50 37 37
50 38 34
50 39 8
50 40 37
50 41 34
50 42 6
50 43 22
50 44 2
50 45 45
50 46 14
50 47 6
50 48 9
50 49 6
51 0 29
51 1 37
51 2 29
51 3 9
51 4 16
51 5 8
51 6 34
51 7 2
51 8 44
51 9 47
51 10 48
51 11 16
51 12 18
51 13 18
51 14 47
51 15 12
51 16 50
51 17 15
51 18 29
51 19 42
51 20 10
51 21 36
51 22 7
51 23 21
51 24 42
51 25 50
51 26 25
51 27 9
51 28 39
51 29 2
51 30 19
51 31 46
51 32 8
51 33 19
51 34 48
51 35 33
51 36 5
51 37 50
51 38 45
51 39 23
51 40 3
51 41 30
51 42 41
51 43 32
51 44 33
51 45 9
51 46 23
51 47 21
51 48 5
51 49 31
51 50 26
52 0 24
52 1 3
52 2 20
52 3 24
52 4 4
52 5 49
52 6 34
52 7 2
52 8 38
52 9 8
52 10 11
52 11 15
52 12 25
52 13 41
52 14 6
52 15 9
52 16 15
52 17 16
52 18 21
52 19 14
52 20 12
52 21 47
52 22 29
52 23 46
52 24 21
52 25 11
52 26 39
52 27 1
52 28 38
52 29 20
52 30 28
52 31 10
52 32 49
52 33 37
52 34 49
52 35 11
52 36 38
52 37 40
52 38 28
52 39 30
52 40 33
52 41 25
52 42 26
52 43 47
52 44 6
52 45 7
52 46 14
52 47 30
52 48 4
52 49 19
52 50 50
52 51 18
53 0 33
53 1 38
53 2 33
53 3 31
53 4 4
53 5 32
53 6 14
53 7 45
53 8 36
53 9 10
53 10 41
53 11 38
53 12 48
53 13 11
53 14 5
53 15 45
53 16 23
53 17 27
53 18 43
53 19 12
53 20 34
53 21 27
53 22 26
53 23 38
53 24 45
53 25 13
53 26 31
53 27 23
53 28 10
53 29 18
53 30 36
53 31 22
53 32 45
53 33 38
53 34 14
53 35 50
53 36 38
53 37 14
53 38 45
53 39 22
53 40 29
53 41 26
53 42 47
53 43 48
53 44 9
53 45 14
53 46 15
53 47 21
53 48 47
53 49 31
53 50 46
53 51 22
53 52 13
54 0 44
54 1 15
54 2 45
54 3 39
54 4 5
54 5 8
54 6 19
54 7 50
54 8 20
54 9 44
54 10 44
54 11 42
54 12 36
54 13 19
54 14 14
54 15 9
54 16 33
54 17 44
54 18 25
54 19 19
54 20 20
54 21 9
54 22 26
54 23 27
54 24 48
54 25 41
54 26 23
54 27 35
54 28 11
54 29 2
54 30 28
54 31 20
54 32 27
54 33 24
54 34 33
54 35 16
54 36 47
54 37 9
54 38 31
54 39 44
54 40 3
54 41 45
54 42 29
54 43 3
54 44 12
54 45 17
54 46 15
54 47 30
54 48 42
54 49 18
54 50 36
54 51 38
54 52 19
54 53 26
55 0 32
55 1 46
55 2 49
55 3 28
55 4 49
55 5 44
55 6 26
55 7 20
55 8 11
55 9 30
55 10 11
55 11 50
55 12 49
55 13 36
55 14 36
55 15 1
55 16 30
55 17 10
55 18 40
55 19 20
55 20 18
55 21 34
55 22 14
55 23 44
55 24 41
55 25 37
55 26 43
55 27 16
55 28 5
55 29 45
55 30 45
55 31 21
55 32 15
55 33 5
55 34 7
55 35 50
55 36 26
55 37 3
55 38 15
55 39 1
55 40 34
55 41 36
55 42 45
55 43 5
55 44 35
55 45 33
55 46 23
55 47 4
55 48 11
55 49 7
55 50 16
55 51 46
55 52 19
55 53 15
55 54 21
56 0 50
56 1 50
56 2 30
56 3 7
56 4 26
56 5 11
56 6 22
56 7 34
56 8 46
56 9 36
56 10 33
56 11 32
56 12 2
56 13 33
56 14 16
56 15 6
56 16 27
56 17 18
56 18 47
56 19 2
56 20 10
56 21 3
56 22 11
56 23 35
56 24 34
56 25 20
56 26 34
56 27 50
56 28 49
56 29 25
56 30 45
56 31 21
56 32 39
56 33 40
56 34 23
56 35 42
56 36 15
56 37 42
56 38 20
56 39 8
56 40 19
56 41 39
56 42 47
56 43 33
56 44 50
56 45 23
56 46 2
56 47 48
56 48 14
56 49 6
56 50 31
56 51 5
56 52 43
56 53 6
56 54 40
56 55 44
57 0 49
57 1 14
57 2 22
57 3 17
57 4 45
57 5 37
57 6 37
57 7 24
57 8 22
57 9 17
57 10 37
57 11 17
57 12 28
57 13 8
57 14 50
57 15 45
57 16 21
57 17 17
57 18 44
57 19 29
57 20 21
57 21 36
57 22 42
57 23 20
57 24 3
57 25 34
57 26 9
57 27 49
57 28 29
57 29 5
57 30 48
57 31 37
57 32 41
57 33 43
57 34 32
57 35 14
57 36 34
57 37 33
57 38 13
57 39 37
57 40 7
57 41 18
57 42 45
57 43 30
57 44 35
57 45 13
57 46 35
57 47 46
57 48 46
57 49 40
57 50 46
57 51 26
57 52 3
57 53 30
57 54 23
57 55 12
57 56 3
58 0 5
58 1 6
58 2 16
58 3 40
58 4 41
58 5 23
58 6 38
58 7 40
58 8 10
58 9 50
58 10 33
58 11 3
58 12 38
58 13 2
58 14 35
58 15 44
58 16 28
58 17 19
58 18 29
58 19 21
58 20 28
58 21 49
58 22 13
58 23 41
58 24 15
58 25 50
58 26 34
58 27 37
58 28 43
58 29 37
58 30 36
58 31 43
58 32 8
58 33 39
58 34 49
58 35 38
58 36 6
58 37 2
58 38 26
58 39 47
58 40 48
58 41 30
58 42 34
58 43 10
58 44 46
58 45 31
58 46 26
58 47 23
58 48 5
58 49 23
58 50 31
58 51 37
58 52 10
58 53 16
58 54 9
58 55 4
58 56 17
58 57 17
59 0 39
59 1 16
59 2 15
59 3 22
59 4 4
59 5 12
59 6 36
59 7 19
59 8 20
59 9 22
59 10 13
59 11 19
59 12 8
59 13 42
59 14 39
59 15 41
59 16 8
59 17 40
59 18 39
59 19 22
59 20 26
59 21 19
59 22 47
59 23 12
59 24 44
59 25 40
59 26 19
59 27 4
59 28 38
59 29 27
59 30 2
59 31 23
59 32 21
59 33 25
59 34 11
59 35 10
59 36 41
59 37 6
59 38 8
59 39 42
59 40 4
59 41 22
59 42 15
59 43 1
59 44 38
59 45 18
59 46 32
59 47 13
59 48 5
59 49 44
59 50 7
59 51 41
59 52 30
59 53 36
59 54 12
59 55 23
59 56 39
59 57 44
59 58 43
60 0 21
60 1 8
60 2 44
60 3 30
60 4 1
60 5 28
60 6 42
60 7 40
60 8 21
60 9 14
60 10 23
60 11 40
60 12 35
60 13 45
60 14 44
60 15 26
60 16 9
60 17 36
60 18 36
60 19 14
60 20 30
60 21 50
60 22 35
60 23 19
60 24 37
60 25 26
60 26 3
60 27 40
60 28 22
60 29 14
60 30 9
60 31 16
60 32 9
60 33 6
60 34 27
60 35 34
60 36 35
60 37 42
60 38 28
60 39 24
60 40 8
60 41 42
60 42 9
60 43 14
60 44 4
60 45 28
60 46 16
60 47 44
60 48 41
60 49 9
60 50 13
60 51 34
60 52 29
60 53 13
60 54 36
60 55 43
60 56 42
60 57 24
60 58 18
60 59 23
61 0 1
61 1 21
61 2 43
61 3 40
61 4 43
61 5 18
61 6 26
61 7 43
61 8 11
61 9 3
61 10 26
61 11 20
61 12 5
61 13 27
61 14 2
61 15 49
61 16 24
61 17 1
61 18 35
61 19 15
61 20 21
61 21 24
61 22 20
61 23 17
61 24 40
61 25 33
61 26 21
61 27 17
61 28 13
61 29 19
61 30 46
61 31 24
61 32 21
61 33 35
61 34 40
61 35 1
61 36 19
61 37 44
61 38 20
61 39 49
61 40 7
61 41 26
61 42 8
61 43 38
61 44 19
61 45 14
61 46 29
61 47 21
61 48 41
61 49 44
61 50 7
61 51 10
61 52 44
61 53 25
61 54 30
61 55 40
61 56 36
61 57 34
61 58 17
61 59 17
61 60 31
62 0 15
62 1 13
62 2 1
62 3 8
62 4 19
62 5 34
62 6 46
62 7 8
62 8 26
62 9 10
62 10 31
62 11 39
62 12 26
62 13 12
62 14 15
62 15 27
62 16 21
62 17 50
62 18 34
62 19 11
62 20 37
62 21 48
62 22 42
62 23 28
62 24 3
62 25 9
62 26 50
62 27 29
62 28 47
62 29 41
62 30 33
62 31 44
62 32 45
62 33 50
62 34 21
62 35 50
62 36 1
62 37 35
62 38 47
62 39 45
62 40 12
62 41 15
62 42 20
62 43 8
62 44 32
62 45 47
62 46 33
62 47 21
62 48 1
62 49 5
62 50 38
62 51 50
62 52 34
62 53 30
62 54 36
62 55 50
62 56 21
62 57 13
62 58 33
62 59 8
62 60 34
62 61 1
63 0 30
63 1 11
63 2 41
63 3 39
63 4 36
63 5 38
63 6 42
63 7 31
63 8 24
63 9 26
63 10 32
63 11 14
63 12 26
63 13 46
63 14 14
63 15 34
63 16 38
63 17 3
63 18 18
63 19 6
63 20 4
63 21 27
63 22 33
63 23 18
63 24 50
63 25 50
63 26 27
63 27 34
63 28 36
63 29 44
63 30 50
63 31 42
63 32 29
63 33 2
63 34 3
63 35 10
63 36 50
63 37 17
63 38 4
63 39 31
63 40 17
63 41 7
63 42 13
63 43 47
63 44 2
63 45 8
63 46 47
63 47 50
63 48 12
63 49 31
63 50 16
63 51 36
63 52 39
63 53 9
63 54 42
63 55 24
63 56 48
63 57 21
63 58 33
63 59 44
63 60 39
63 61 27
63 62 21
64 0 36
64 1 18
64 2 37
64 3 22
64 4 36
64 5 43
64 6 28
64 7 25
64 8 12
64 9 4
64 10 43
64 11 50
64 12 6
64 13 19
64 14 22
64 15 37
64 16 24
64 17 46
64 18 13
64 19 36
64 20 41
64 21 10
64 22 9
64 23 4
64 24 49
64 25 15
64 26 5
64 27 27
64 28 41
64 29 20
64 30 18
64 31 12
64 32 32
64 33 28
64 34 36
64 35 47
64 36 24
64 37 36
64 38 2
64 39 33
64 40 9
64 41 21
64 42 37
64 43 32
64 44 32
64 45 32
64 46 27
64 47 36
64 48 36
64 49 3
64 50 6
64 51 42
64 52 30
64 53 12
64 54 28
64 55 17
64 56 28
64 57 30
64 58 41
64 59 49
64 60 47
64 61 31
64 62 39
64 63 45
65 0 50
65 1 2
65 2 14
65 3 8
65 4 17
65 5 16
65 6 8
65 7 23
65 8 17
65 9 33
65 10 35
65 11 6
65 12 11
65 13 7
65 14 28
65 15 17
65 16 8
65 17 47
65 18 6
65 19 35
65 20 14
65 21 39
65 22 50
65 23 2
65 24 26
65 25 38
65 26 6
65 27 9
65 28 47
65 29 15
65 30 22
65 31 22
65 32 24
65 33 14
65 34 24
65 35 36
65 36 34
65 37 4
65 38 48
65 39 23
65 40 32
65 41 7
65 42 22
65 43 47
65 44 17
65 45 32
65 46 34
65 47 42
65 48 50
65 49 7
65 50 46
65 51 29
65 52 7
65 53 8
65 54 44
65 55 23
65 56 33
65 57 17
65 58 14
65 59 6
65 60 40
65 61 27
65 62 2
65 63 45
65 64 3
66 0 41
66 1 3
66 2 32
66 3 18
66 4 25
66 5 2
66 6 15
66 7 50
66 8 27
66 9 15
66 10 36
66 11 9
66 12 46
66 13 3
66 14 31
66 15 6
66 16 48
66 17 43
66 18 19
66 19 17
66 20 21
66 21 49
66 22 11
66 23 8
66 24 3
66 25 11
66 26 1
66 27 31
66 28 6
66 29 14
66 30 34
66 31 39
66 32 33
66 33 19
66 34 39
66 35 32
66 36 30
66 37 21
66 38 7
66 39 8
66 40 18
66 41 10
66 42 21
66 43 25
66 44 5
66 45 45
66 46 37
66 47 1
66 48 47
66 49 38
66 50 49
66 51 47
66 52 44
66 53 28
66 54 31
66 55 29
66 56 3
66 57 18
66 58 39
66 59 30
66 60 42
66 61 35
66 62 1
66 63 39
66 64 30
66 65 16
67 0 9
67 1 49
67 2 15
67 3 26
67 4 1
67 5 31
67 6 16
67 7 28
67 8 44
67 9 30
67 10 2
67 11 8
67 12 9
67 13 34
67 14 5
67 15 50
67 16 36
67 17 31
67 18 22
67 19 8
67 20 1
67 21 31
67 22 23
67 23 27
67 24 12
67 25 42
67 26 50
67 27 36
67 28 17
67 29 5
67 30 40
67 31 5
67 32 28
67 33 6
67 34 43
67 35 1
67 36 15
67 37 29
67 38 39
67 39 8
67 40 6
67 41 9
67 42 39
67 43 29
67 44 21
67 45 23
67 46 23
67 47 11
67 48 39
67 49 40
67 50 1
67 51 30
67 52 20
67 53 8
67 54 34
67 55 49
67 56 37
67 57 17
67 58 36
67 59 20
67 60 35
67 61 34
67 62 50
67 63 17
67 64 32
67 65 41
67 66 11
68 0 41
68 1 2
68 2 40
68 3 3
68 4 4
68 5 42
68 6 12
68 7 47
68 8 28
68 9 35
68 10 1
68 11 21
68 12 19
68 13 29
68 14 19
68 15 49
68 16 39
68 17 27
68 18 6
68 19 42
68 20 5
68 21 21
68 22 43
68 23 21
68 24 21
68 25 8
68 26 8
68 27 4
68 28 41
68 29 33
68 30 44
68 31 24
68 32 40
68 33 23
68 34 27
68 35 47
68 36 30
68 37 39
68 38 2
68 39 4
68 40 2
68 41 23
68 42 15
68 43 7
68 44 32
68 45 9
68 46 37
68 47 24
68 48 32
68 49 31
68 50 15
68 51 12
68 52 26
68 53 36
68 54 42
68 55 12
68 56 50
68 57 9
68 58 44
68 59 17
68 60 24
68 61 31
68 62 50
68 63 13
68 64 48
68 65 13
68 66 22
68 67 2
69 0 6
69 1 7
69 2 47
69 3 11
69 4 24
69 5 43
69 6 14
69 7 49
69 8 9
69 9 35
69 10 30
69 11 47
69 12 6
69 13 27
69 14 20
69 15 33
69 16 45
69 17 36
69 18 16
69 19 17
69 20 37
69 21 6
69 22 39
69 23 3
69 24 15
69 25 41
69 26 32
69 27 5
69 28 6
69 29 6
69 30 23
69 31 12
69 32 1
69 33 48
69 34 16
69 35 4
69 36 32
69 37 1
69 38 49
69 39 44
69 40 10
69 41 36
69 42 48
69 43 22
69 44 47
69 45 15
69 46 42
69 47 43
69 48 41
69 49 26
69 50 39
69 51 21
69 52 30
69 53 27
69 54 11
69 55 35
69 56 7
69 57 13
69 58 2
69 59 47
69 60 46
69 61 1
69 62 37
69 63 50
69 64 31
69 65 29
69 66 28
69 67 32
69 68 31
